Results/Experiment 1 Results/New Benchmark/RES_60/output_p1_0.00_p2_0.00_n_60_10.txt
solutions: 373248 nodes: 678154  modelTime: 143  solveTime: 2055  totalTime: 2206  modelSize: 7853  readTime: 8 matchingSize: 30
