Results/Experiment 2 Results/New Benchmark/output_p1_0.00_p2_0.00_n_60_10.lp
clingo version 5.4.0
Reading from tempSRTISolver.lp ...
Solving...
Answer: 1
matched(6,2) matched(1,3) matched(8,4) matched(7,5) matched(2,6) matched(5,7) matched(4,8) matched(9,10) matched(12,11) matched(11,12) matched(10,9) matched(19,14) matched(20,15) matched(13,16) matched(18,17) matched(17,18) matched(14,19) matched(15,20) matched(16,13) matched(26,22) matched(21,23) matched(28,24) matched(27,25) matched(22,26) matched(25,27) matched(24,28) matched(23,21) matched(29,30) matched(32,31) matched(31,32) matched(30,29) matched(33,34) matched(40,35) matched(39,36) matched(38,37) matched(37,38) matched(36,39) matched(35,40) matched(34,33) matched(41,42) matched(48,43) matched(47,44) matched(46,45) matched(45,46) matched(44,47) matched(43,48) matched(42,41) matched(49,50) matched(52,51) matched(51,52) matched(50,49) matched(53,54) matched(58,55) matched(59,56) matched(60,57) matched(55,58) matched(56,59) matched(57,60) matched(54,53) matched(3,1)
Optimization: 841
Answer: 2
matched(6,2) matched(1,3) matched(8,4) matched(7,5) matched(2,6) matched(5,7) matched(4,8) matched(9,10) matched(12,11) matched(11,12) matched(10,9) matched(19,14) matched(20,15) matched(13,16) matched(18,17) matched(17,18) matched(14,19) matched(15,20) matched(16,13) matched(26,22) matched(21,23) matched(28,24) matched(27,25) matched(22,26) matched(25,27) matched(24,28) matched(23,21) matched(29,30) matched(32,31) matched(31,32) matched(30,29) matched(39,34) matched(40,35) matched(33,36) matched(38,37) matched(37,38) matched(34,39) matched(35,40) matched(36,33) matched(41,42) matched(48,43) matched(47,44) matched(46,45) matched(45,46) matched(44,47) matched(43,48) matched(42,41) matched(49,50) matched(52,51) matched(51,52) matched(50,49) matched(53,54) matched(58,55) matched(59,56) matched(60,57) matched(55,58) matched(56,59) matched(57,60) matched(54,53) matched(3,1)
Optimization: 814
Answer: 3
matched(6,2) matched(1,3) matched(8,4) matched(7,5) matched(2,6) matched(5,7) matched(4,8) matched(9,10) matched(12,11) matched(11,12) matched(10,9) matched(19,14) matched(20,15) matched(13,16) matched(18,17) matched(17,18) matched(14,19) matched(15,20) matched(16,13) matched(26,22) matched(21,23) matched(28,24) matched(27,25) matched(22,26) matched(25,27) matched(24,28) matched(23,21) matched(29,30) matched(32,31) matched(31,32) matched(30,29) matched(39,34) matched(40,35) matched(33,36) matched(38,37) matched(37,38) matched(34,39) matched(35,40) matched(36,33) matched(41,42) matched(48,43) matched(47,44) matched(46,45) matched(45,46) matched(44,47) matched(43,48) matched(42,41) matched(49,50) matched(52,51) matched(51,52) matched(50,49) matched(53,54) matched(60,55) matched(59,56) matched(58,57) matched(57,58) matched(56,59) matched(55,60) matched(54,53) matched(3,1)
Optimization: 813
Answer: 4
matched(6,2) matched(1,3) matched(8,4) matched(7,5) matched(2,6) matched(5,7) matched(4,8) matched(9,10) matched(12,11) matched(11,12) matched(10,9) matched(19,14) matched(20,15) matched(13,16) matched(18,17) matched(17,18) matched(14,19) matched(15,20) matched(16,13) matched(26,22) matched(21,23) matched(28,24) matched(27,25) matched(22,26) matched(25,27) matched(24,28) matched(23,21) matched(29,30) matched(32,31) matched(31,32) matched(30,29) matched(33,34) matched(40,35) matched(39,36) matched(38,37) matched(37,38) matched(36,39) matched(35,40) matched(34,33) matched(47,42) matched(48,43) matched(41,44) matched(46,45) matched(45,46) matched(42,47) matched(43,48) matched(44,41) matched(51,50) matched(50,51) matched(49,52) matched(52,49) matched(60,54) matched(58,55) matched(53,56) matched(59,57) matched(55,58) matched(57,59) matched(54,60) matched(56,53) matched(3,1)
Optimization: 807
Answer: 5
matched(6,2) matched(1,3) matched(8,4) matched(7,5) matched(2,6) matched(5,7) matched(4,8) matched(9,10) matched(12,11) matched(11,12) matched(10,9) matched(19,14) matched(20,15) matched(13,16) matched(18,17) matched(17,18) matched(14,19) matched(15,20) matched(16,13) matched(26,22) matched(21,23) matched(28,24) matched(27,25) matched(22,26) matched(25,27) matched(24,28) matched(23,21) matched(29,30) matched(32,31) matched(31,32) matched(30,29) matched(33,34) matched(40,35) matched(39,36) matched(38,37) matched(37,38) matched(36,39) matched(35,40) matched(34,33) matched(47,42) matched(48,43) matched(41,44) matched(46,45) matched(45,46) matched(42,47) matched(43,48) matched(44,41) matched(49,50) matched(52,51) matched(51,52) matched(50,49) matched(60,54) matched(58,55) matched(53,56) matched(59,57) matched(55,58) matched(57,59) matched(54,60) matched(56,53) matched(3,1)
Optimization: 800
Answer: 6
matched(6,2) matched(1,3) matched(8,4) matched(7,5) matched(2,6) matched(5,7) matched(4,8) matched(9,10) matched(12,11) matched(11,12) matched(10,9) matched(19,14) matched(20,15) matched(13,16) matched(18,17) matched(17,18) matched(14,19) matched(15,20) matched(16,13) matched(26,22) matched(21,23) matched(28,24) matched(27,25) matched(22,26) matched(25,27) matched(24,28) matched(23,21) matched(29,30) matched(32,31) matched(31,32) matched(30,29) matched(33,34) matched(40,35) matched(39,36) matched(38,37) matched(37,38) matched(36,39) matched(35,40) matched(34,33) matched(41,42) matched(48,43) matched(47,44) matched(46,45) matched(45,46) matched(44,47) matched(43,48) matched(42,41) matched(51,50) matched(50,51) matched(49,52) matched(52,49) matched(60,54) matched(58,55) matched(53,56) matched(59,57) matched(55,58) matched(57,59) matched(54,60) matched(56,53) matched(3,1)
Optimization: 794
Answer: 7
matched(6,2) matched(1,3) matched(8,4) matched(7,5) matched(2,6) matched(5,7) matched(4,8) matched(9,10) matched(12,11) matched(11,12) matched(10,9) matched(19,14) matched(20,15) matched(13,16) matched(18,17) matched(17,18) matched(14,19) matched(15,20) matched(16,13) matched(26,22) matched(21,23) matched(28,24) matched(27,25) matched(22,26) matched(25,27) matched(24,28) matched(23,21) matched(29,30) matched(32,31) matched(31,32) matched(30,29) matched(33,34) matched(40,35) matched(39,36) matched(38,37) matched(37,38) matched(36,39) matched(35,40) matched(34,33) matched(41,42) matched(48,43) matched(47,44) matched(46,45) matched(45,46) matched(44,47) matched(43,48) matched(42,41) matched(49,50) matched(52,51) matched(51,52) matched(50,49) matched(60,54) matched(58,55) matched(53,56) matched(59,57) matched(55,58) matched(57,59) matched(54,60) matched(56,53) matched(3,1)
Optimization: 787
Answer: 8
matched(6,2) matched(1,3) matched(8,4) matched(7,5) matched(2,6) matched(5,7) matched(4,8) matched(9,10) matched(12,11) matched(11,12) matched(10,9) matched(19,14) matched(20,15) matched(13,16) matched(18,17) matched(17,18) matched(14,19) matched(15,20) matched(16,13) matched(26,22) matched(21,23) matched(28,24) matched(27,25) matched(22,26) matched(25,27) matched(24,28) matched(23,21) matched(29,30) matched(32,31) matched(31,32) matched(30,29) matched(39,34) matched(40,35) matched(33,36) matched(38,37) matched(37,38) matched(34,39) matched(35,40) matched(36,33) matched(47,42) matched(48,43) matched(41,44) matched(46,45) matched(45,46) matched(42,47) matched(43,48) matched(44,41) matched(51,50) matched(50,51) matched(49,52) matched(52,49) matched(60,54) matched(58,55) matched(53,56) matched(59,57) matched(55,58) matched(57,59) matched(54,60) matched(56,53) matched(3,1)
Optimization: 780
Answer: 9
matched(6,2) matched(1,3) matched(8,4) matched(7,5) matched(2,6) matched(5,7) matched(4,8) matched(9,10) matched(12,11) matched(11,12) matched(10,9) matched(19,14) matched(20,15) matched(13,16) matched(18,17) matched(17,18) matched(14,19) matched(15,20) matched(16,13) matched(26,22) matched(21,23) matched(28,24) matched(27,25) matched(22,26) matched(25,27) matched(24,28) matched(23,21) matched(29,30) matched(32,31) matched(31,32) matched(30,29) matched(39,34) matched(40,35) matched(33,36) matched(38,37) matched(37,38) matched(34,39) matched(35,40) matched(36,33) matched(41,42) matched(48,43) matched(47,44) matched(46,45) matched(45,46) matched(44,47) matched(43,48) matched(42,41) matched(51,50) matched(50,51) matched(49,52) matched(52,49) matched(60,54) matched(58,55) matched(53,56) matched(59,57) matched(55,58) matched(57,59) matched(54,60) matched(56,53) matched(3,1)
Optimization: 767
Answer: 10
matched(6,2) matched(1,3) matched(8,4) matched(7,5) matched(2,6) matched(5,7) matched(4,8) matched(9,10) matched(12,11) matched(11,12) matched(10,9) matched(19,14) matched(20,15) matched(13,16) matched(18,17) matched(17,18) matched(14,19) matched(15,20) matched(16,13) matched(26,22) matched(21,23) matched(28,24) matched(27,25) matched(22,26) matched(25,27) matched(24,28) matched(23,21) matched(29,30) matched(32,31) matched(31,32) matched(30,29) matched(39,34) matched(40,35) matched(33,36) matched(38,37) matched(37,38) matched(34,39) matched(35,40) matched(36,33) matched(41,42) matched(48,43) matched(47,44) matched(46,45) matched(45,46) matched(44,47) matched(43,48) matched(42,41) matched(49,50) matched(52,51) matched(51,52) matched(50,49) matched(60,54) matched(58,55) matched(53,56) matched(59,57) matched(55,58) matched(57,59) matched(54,60) matched(56,53) matched(3,1)
Optimization: 760
Answer: 11
matched(1,2) matched(8,3) matched(7,4) matched(6,5) matched(5,6) matched(4,7) matched(3,8) matched(11,10) matched(10,11) matched(9,12) matched(12,9) matched(18,14) matched(13,15) matched(20,16) matched(19,17) matched(14,18) matched(17,19) matched(16,20) matched(15,13) matched(28,22) matched(26,23) matched(21,24) matched(27,25) matched(23,26) matched(25,27) matched(22,28) matched(24,21) matched(29,30) matched(32,31) matched(31,32) matched(30,29) matched(39,34) matched(40,35) matched(33,36) matched(38,37) matched(37,38) matched(34,39) matched(35,40) matched(36,33) matched(41,42) matched(48,43) matched(47,44) matched(46,45) matched(45,46) matched(44,47) matched(43,48) matched(42,41) matched(49,50) matched(52,51) matched(51,52) matched(50,49) matched(60,54) matched(58,55) matched(53,56) matched(59,57) matched(55,58) matched(57,59) matched(54,60) matched(56,53) matched(2,1)
Optimization: 757
Answer: 12
matched(7,2) matched(8,3) matched(1,4) matched(6,5) matched(5,6) matched(2,7) matched(3,8) matched(11,10) matched(10,11) matched(9,12) matched(12,9) matched(18,14) matched(13,15) matched(20,16) matched(19,17) matched(14,18) matched(17,19) matched(16,20) matched(15,13) matched(28,22) matched(26,23) matched(21,24) matched(27,25) matched(23,26) matched(25,27) matched(22,28) matched(24,21) matched(29,30) matched(32,31) matched(31,32) matched(30,29) matched(39,34) matched(40,35) matched(33,36) matched(38,37) matched(37,38) matched(34,39) matched(35,40) matched(36,33) matched(41,42) matched(48,43) matched(47,44) matched(46,45) matched(45,46) matched(44,47) matched(43,48) matched(42,41) matched(49,50) matched(52,51) matched(51,52) matched(50,49) matched(60,54) matched(58,55) matched(53,56) matched(59,57) matched(55,58) matched(57,59) matched(54,60) matched(56,53) matched(4,1)
Optimization: 756
Answer: 13
matched(8,2) matched(6,3) matched(1,4) matched(7,5) matched(3,6) matched(5,7) matched(2,8) matched(11,10) matched(10,11) matched(9,12) matched(12,9) matched(18,14) matched(13,15) matched(20,16) matched(19,17) matched(14,18) matched(17,19) matched(16,20) matched(15,13) matched(28,22) matched(26,23) matched(21,24) matched(27,25) matched(23,26) matched(25,27) matched(22,28) matched(24,21) matched(29,30) matched(32,31) matched(31,32) matched(30,29) matched(39,34) matched(40,35) matched(33,36) matched(38,37) matched(37,38) matched(34,39) matched(35,40) matched(36,33) matched(41,42) matched(48,43) matched(47,44) matched(46,45) matched(45,46) matched(44,47) matched(43,48) matched(42,41) matched(49,50) matched(52,51) matched(51,52) matched(50,49) matched(60,54) matched(58,55) matched(53,56) matched(59,57) matched(55,58) matched(57,59) matched(54,60) matched(56,53) matched(4,1)
Optimization: 755
Answer: 14
matched(7,2) matched(8,3) matched(1,4) matched(6,5) matched(5,6) matched(2,7) matched(3,8) matched(11,10) matched(10,11) matched(9,12) matched(12,9) matched(20,14) matched(18,15) matched(13,16) matched(19,17) matched(15,18) matched(17,19) matched(14,20) matched(16,13) matched(28,22) matched(26,23) matched(21,24) matched(27,25) matched(23,26) matched(25,27) matched(22,28) matched(24,21) matched(29,30) matched(32,31) matched(31,32) matched(30,29) matched(39,34) matched(40,35) matched(33,36) matched(38,37) matched(37,38) matched(34,39) matched(35,40) matched(36,33) matched(41,42) matched(48,43) matched(47,44) matched(46,45) matched(45,46) matched(44,47) matched(43,48) matched(42,41) matched(49,50) matched(52,51) matched(51,52) matched(50,49) matched(60,54) matched(58,55) matched(53,56) matched(59,57) matched(55,58) matched(57,59) matched(54,60) matched(56,53) matched(4,1)
Optimization: 754
Answer: 15
matched(8,2) matched(6,3) matched(1,4) matched(7,5) matched(3,6) matched(5,7) matched(2,8) matched(11,10) matched(10,11) matched(9,12) matched(12,9) matched(20,14) matched(18,15) matched(13,16) matched(19,17) matched(15,18) matched(17,19) matched(14,20) matched(16,13) matched(28,22) matched(26,23) matched(21,24) matched(27,25) matched(23,26) matched(25,27) matched(22,28) matched(24,21) matched(29,30) matched(32,31) matched(31,32) matched(30,29) matched(39,34) matched(40,35) matched(33,36) matched(38,37) matched(37,38) matched(34,39) matched(35,40) matched(36,33) matched(41,42) matched(48,43) matched(47,44) matched(46,45) matched(45,46) matched(44,47) matched(43,48) matched(42,41) matched(49,50) matched(52,51) matched(51,52) matched(50,49) matched(60,54) matched(58,55) matched(53,56) matched(59,57) matched(55,58) matched(57,59) matched(54,60) matched(56,53) matched(4,1)
Optimization: 753
Answer: 16
matched(8,2) matched(6,3) matched(1,4) matched(7,5) matched(3,6) matched(5,7) matched(2,8) matched(11,10) matched(10,11) matched(9,12) matched(12,9) matched(19,14) matched(20,15) matched(13,16) matched(18,17) matched(17,18) matched(14,19) matched(15,20) matched(16,13) matched(28,22) matched(26,23) matched(21,24) matched(27,25) matched(23,26) matched(25,27) matched(22,28) matched(24,21) matched(29,30) matched(32,31) matched(31,32) matched(30,29) matched(39,34) matched(40,35) matched(33,36) matched(38,37) matched(37,38) matched(34,39) matched(35,40) matched(36,33) matched(41,42) matched(48,43) matched(47,44) matched(46,45) matched(45,46) matched(44,47) matched(43,48) matched(42,41) matched(49,50) matched(52,51) matched(51,52) matched(50,49) matched(60,54) matched(58,55) matched(53,56) matched(59,57) matched(55,58) matched(57,59) matched(54,60) matched(56,53) matched(4,1)
Optimization: 752
OPTIMUM FOUND

Models       : 16
  Optimum    : yes
Optimization : 752
Calls        : 1
Time         : 10.534s (Solving: 3.27s 1st Model: 0.00s Unsat: 0.80s)
CPU Time     : 10.526s
